NAME: X298-FSMD
COMMENT: Generated by Uchoa, Pecin, Pessoa, Poggi, Subramanian, and Vidal (2013). Modified by Sadykov, Pessoa and Uchoa (2017). Converted to PyVRP's VRPLIB dialect.
TYPE: HFVRP
DIMENSION: 298
VEHICLES: 1485
EDGE_WEIGHT_TYPE: EUC_2D
NODE_COORD_SECTION
1	440	732
2	221	348
3	117	545
4	493	645
5	135	12
6	775	997
7	745	444
8	950	311
9	530	150
10	900	508
11	48	519
12	269	217
13	722	349
14	480	733
15	977	422
16	999	220
17	636	332
18	851	162
19	559	567
20	389	69
21	529	835
22	303	427
23	400	638
24	894	904
25	482	109
26	579	800
27	184	82
28	669	753
29	906	424
30	374	692
31	174	613
32	75	37
33	38	563
34	838	157
35	710	709
36	176	67
37	449	326
38	71	389
39	710	115
40	237	547
41	530	27
42	631	223
43	171	342
44	226	65
45	6	998
46	24	635
47	668	165
48	318	608
49	429	82
50	212	237
51	853	126
52	387	47
53	677	144
54	111	790
55	957	32
56	511	647
57	457	561
58	86	687
59	290	456
60	473	563
61	807	725
62	461	468
63	739	235
64	257	340
65	588	545
66	6	311
67	268	976
68	552	414
69	994	946
70	452	534
71	422	545
72	248	611
73	43	366
74	977	96
75	822	580
76	940	650
77	86	263
78	715	99
79	668	981
80	424	638
81	297	607
82	251	282
83	237	413
84	202	573
85	181	385
86	126	528
87	386	811
88	978	846
89	70	99
90	333	357
91	49	870
92	157	734
93	627	268
94	818	433
95	738	555
96	350	909
97	337	926
98	978	59
99	42	595
100	870	933
101	19	120
102	165	679
103	131	984
104	232	755
105	319	417
106	187	376
107	251	482
108	657	219
109	209	397
110	800	377
111	228	116
112	566	559
113	490	156
114	216	547
115	964	677
116	85	897
117	292	807
118	600	893
119	938	222
120	543	747
121	572	976
122	569	59
123	712	574
124	971	515
125	616	306
126	695	837
127	421	821
128	604	995
129	537	957
130	1000	653
131	282	817
132	380	874
133	778	101
134	462	74
135	87	682
136	441	228
137	608	430
138	511	313
139	710	300
140	630	24
141	626	650
142	531	719
143	598	824
144	995	622
145	258	981
146	358	281
147	279	169
148	286	268
149	259	659
150	782	132
151	862	518
152	457	603
153	210	438
154	44	44
155	527	818
156	164	156
157	23	86
158	342	930
159	39	282
160	269	848
161	436	886
162	323	340
163	237	891
164	333	488
165	517	137
166	591	972
167	541	888
168	122	280
169	159	655
170	200	158
171	446	283
172	107	315
173	588	270
174	158	374
175	26	353
176	959	76
177	852	328
178	927	736
179	437	138
180	53	938
181	333	192
182	922	499
183	407	948
184	970	664
185	237	738
186	8	561
187	747	852
188	989	908
189	100	860
190	10	960
191	842	190
192	595	716
193	286	965
194	199	373
195	159	67
196	979	25
197	488	479
198	804	620
199	742	853
200	528	160
201	223	342
202	503	159
203	711	681
204	339	340
205	342	509
206	931	593
207	766	953
208	710	172
209	521	451
210	172	159
211	685	836
212	639	155
213	763	656
214	269	241
215	825	761
216	330	177
217	901	124
218	713	860
219	619	926
220	692	19
221	96	876
222	949	178
223	79	795
224	833	852
225	336	444
226	877	0
227	296	597
228	566	735
229	940	377
230	349	269
231	939	827
232	908	120
233	50	741
234	670	569
235	753	744
236	577	351
237	141	616
238	97	625
239	64	875
240	496	160
241	515	598
242	344	803
243	274	510
244	291	170
245	800	300
246	74	609
247	365	207
248	791	396
249	453	848
250	405	191
251	395	290
252	525	743
253	260	385
254	408	837
255	1	346
256	231	504
257	837	572
258	606	473
259	900	729
260	346	868
261	123	80
262	477	169
263	383	59
264	510	410
265	890	101
266	952	635
267	825	722
268	68	598
269	234	841
270	911	720
271	172	367
272	569	289
273	84	19
274	694	916
275	454	412
276	261	233
277	693	375
278	588	854
279	276	538
280	599	569
281	142	158
282	338	805
283	324	194
284	739	325
285	845	639
286	638	182
287	858	93
288	40	923
289	37	599
290	638	39
291	218	714
292	568	674
293	288	840
294	439	570
295	325	801
296	587	278
297	992	674
298	597	608
DEMAND_SECTION
1	0
2	2
3	9
4	1
5	4
6	9
7	5
8	7
9	2
10	4
11	7
12	2
13	9
14	5
15	10
16	5
17	8
18	5
19	8
20	8
21	6
22	7
23	2
24	1
25	3
26	9
27	1
28	1
29	10
30	3
31	4
32	8
33	10
34	7
35	9
36	6
37	1
38	1
39	9
40	9
41	5
42	9
43	3
44	6
45	4
46	2
47	8
48	3
49	10
50	6
51	9
52	5
53	5
54	7
55	10
56	5
57	8
58	1
59	4
60	4
61	10
62	7
63	8
64	9
65	8
66	1
67	5
68	9
69	8
70	4
71	7
72	5
73	2
74	9
75	1
76	6
77	10
78	10
79	7
80	10
81	6
82	6
83	9
84	2
85	6
86	1
87	9
88	8
89	10
90	3
91	9
92	3
93	8
94	10
95	6
96	10
97	9
98	7
99	7
100	4
101	1
102	3
103	4
104	5
105	10
106	4
107	2
108	9
109	1
110	6
111	4
112	7
113	5
114	1
115	3
116	4
117	4
118	6
119	6
120	9
121	9
122	7
123	9
124	2
125	8
126	10
127	5
128	10
129	3
130	8
131	7
132	6
133	3
134	8
135	8
136	8
137	9
138	9
139	8
140	1
141	1
142	8
143	5
144	4
145	6
146	1
147	10
148	6
149	3
150	1
151	7
152	9
153	4
154	8
155	4
156	7
157	4
158	6
159	2
160	1
161	9
162	6
163	7
164	2
165	8
166	7
167	4
168	5
169	9
170	6
171	1
172	5
173	3
174	4
175	6
176	1
177	9
178	10
179	3
180	4
181	7
182	2
183	10
184	9
185	3
186	7
187	6
188	2
189	9
190	4
191	2
192	3
193	5
194	4
195	8
196	6
197	10
198	6
199	10
200	7
201	8
202	7
203	1
204	8
205	3
206	2
207	5
208	9
209	1
210	1
211	3
212	4
213	10
214	9
215	10
216	8
217	6
218	7
219	7
220	4
221	8
222	3
223	3
224	5
225	1
226	6
227	3
228	4
229	3
230	4
231	1
232	3
233	5
234	7
235	1
236	4
237	3
238	9
239	8
240	8
241	3
242	7
243	2
244	9
245	7
246	8
247	5
248	7
249	2
250	1
251	9
252	7
253	6
254	1
255	1
256	9
257	6
258	4
259	1
260	2
261	2
262	9
263	5
264	5
265	10
266	7
267	2
268	10
269	9
270	4
271	10
272	9
273	3
274	10
275	1
276	7
277	1
278	8
279	10
280	6
281	10
282	2
283	2
284	7
285	5
286	5
287	3
288	4
289	9
290	1
291	6
292	3
293	9
294	8
295	9
296	1
297	10
298	10
CAPACITY_SECTION
1	19
2	19
3	19
4	19
5	19
6	19
7	19
8	19
9	19
10	19
11	19
12	19
13	19
14	19
15	19
16	19
17	19
18	19
19	19
20	19
21	19
22	19
23	19
24	19
25	19
26	19
27	19
28	19
29	19
30	19
31	19
32	19
33	19
34	19
35	19
36	19
37	19
38	19
39	19
40	19
41	19
42	19
43	19
44	19
45	19
46	19
47	19
48	19
49	19
50	19
51	19
52	19
53	19
54	19
55	19
56	19
57	19
58	19
59	19
60	19
61	19
62	19
63	19
64	19
65	19
66	19
67	19
68	19
69	19
70	19
71	19
72	19
73	19
74	19
75	19
76	19
77	19
78	19
79	19
80	19
81	19
82	19
83	19
84	19
85	19
86	19
87	19
88	19
89	19
90	19
91	19
92	19
93	19
94	19
95	19
96	19
97	19
98	19
99	19
100	19
101	19
102	19
103	19
104	19
105	19
106	19
107	19
108	19
109	19
110	19
111	19
112	19
113	19
114	19
115	19
116	19
117	19
118	19
119	19
120	19
121	19
122	19
123	19
124	19
125	19
126	19
127	19
128	19
129	19
130	19
131	19
132	19
133	19
134	19
135	19
136	19
137	19
138	19
139	19
140	19
141	19
142	19
143	19
144	19
145	19
146	19
147	19
148	19
149	19
150	19
151	19
152	19
153	19
154	19
155	19
156	19
157	19
158	19
159	19
160	19
161	19
162	19
163	19
164	19
165	19
166	19
167	19
168	19
169	19
170	19
171	19
172	19
173	19
174	19
175	19
176	19
177	19
178	19
179	19
180	19
181	19
182	19
183	19
184	19
185	19
186	19
187	19
188	19
189	19
190	19
191	19
192	19
193	19
194	19
195	19
196	19
197	19
198	19
199	19
200	19
201	19
202	19
203	19
204	19
205	19
206	19
207	19
208	19
209	19
210	19
211	19
212	19
213	19
214	19
215	19
216	19
217	19
218	19
219	19
220	19
221	19
222	19
223	19
224	19
225	19
226	19
227	19
228	19
229	19
230	19
231	19
232	19
233	19
234	19
235	19
236	19
237	19
238	19
239	19
240	19
241	19
242	19
243	19
244	19
245	19
246	19
247	19
248	19
249	19
250	19
251	19
252	19
253	19
254	19
255	19
256	19
257	19
258	19
259	19
260	19
261	19
262	19
263	19
264	19
265	19
266	19
267	19
268	19
269	19
270	19
271	19
272	19
273	19
274	19
275	19
276	19
277	19
278	19
279	19
280	19
281	19
282	19
283	19
284	19
285	19
286	19
287	19
288	19
289	19
290	19
291	19
292	19
293	19
294	19
295	19
296	19
297	19
298	29
299	29
300	29
301	29
302	29
303	29
304	29
305	29
306	29
307	29
308	29
309	29
310	29
311	29
312	29
313	29
314	29
315	29
316	29
317	29
318	29
319	29
320	29
321	29
322	29
323	29
324	29
325	29
326	29
327	29
328	29
329	29
330	29
331	29
332	29
333	29
334	29
335	29
336	29
337	29
338	29
339	29
340	29
341	29
342	29
343	29
344	29
345	29
346	29
347	29
348	29
349	29
350	29
351	29
352	29
353	29
354	29
355	29
356	29
357	29
358	29
359	29
360	29
361	29
362	29
363	29
364	29
365	29
366	29
367	29
368	29
369	29
370	29
371	29
372	29
373	29
374	29
375	29
376	29
377	29
378	29
379	29
380	29
381	29
382	29
383	29
384	29
385	29
386	29
387	29
388	29
389	29
390	29
391	29
392	29
393	29
394	29
395	29
396	29
397	29
398	29
399	29
400	29
401	29
402	29
403	29
404	29
405	29
406	29
407	29
408	29
409	29
410	29
411	29
412	29
413	29
414	29
415	29
416	29
417	29
418	29
419	29
420	29
421	29
422	29
423	29
424	29
425	29
426	29
427	29
428	29
429	29
430	29
431	29
432	29
433	29
434	29
435	29
436	29
437	29
438	29
439	29
440	29
441	29
442	29
443	29
444	29
445	29
446	29
447	29
448	29
449	29
450	29
451	29
452	29
453	29
454	29
455	29
456	29
457	29
458	29
459	29
460	29
461	29
462	29
463	29
464	29
465	29
466	29
467	29
468	29
469	29
470	29
471	29
472	29
473	29
474	29
475	29
476	29
477	29
478	29
479	29
480	29
481	29
482	29
483	29
484	29
485	29
486	29
487	29
488	29
489	29
490	29
491	29
492	29
493	29
494	29
495	29
496	29
497	29
498	29
499	29
500	29
501	29
502	29
503	29
504	29
505	29
506	29
507	29
508	29
509	29
510	29
511	29
512	29
513	29
514	29
515	29
516	29
517	29
518	29
519	29
520	29
521	29
522	29
523	29
524	29
525	29
526	29
527	29
528	29
529	29
530	29
531	29
532	29
533	29
534	29
535	29
536	29
537	29
538	29
539	29
540	29
541	29
542	29
543	29
544	29
545	29
546	29
547	29
548	29
549	29
550	29
551	29
552	29
553	29
554	29
555	29
556	29
557	29
558	29
559	29
560	29
561	29
562	29
563	29
564	29
565	29
566	29
567	29
568	29
569	29
570	29
571	29
572	29
573	29
574	29
575	29
576	29
577	29
578	29
579	29
580	29
581	29
582	29
583	29
584	29
585	29
586	29
587	29
588	29
589	29
590	29
591	29
592	29
593	29
594	29
595	45
596	45
597	45
598	45
599	45
600	45
601	45
602	45
603	45
604	45
605	45
606	45
607	45
608	45
609	45
610	45
611	45
612	45
613	45
614	45
615	45
616	45
617	45
618	45
619	45
620	45
621	45
622	45
623	45
624	45
625	45
626	45
627	45
628	45
629	45
630	45
631	45
632	45
633	45
634	45
635	45
636	45
637	45
638	45
639	45
640	45
641	45
642	45
643	45
644	45
645	45
646	45
647	45
648	45
649	45
650	45
651	45
652	45
653	45
654	45
655	45
656	45
657	45
658	45
659	45
660	45
661	45
662	45
663	45
664	45
665	45
666	45
667	45
668	45
669	45
670	45
671	45
672	45
673	45
674	45
675	45
676	45
677	45
678	45
679	45
680	45
681	45
682	45
683	45
684	45
685	45
686	45
687	45
688	45
689	45
690	45
691	45
692	45
693	45
694	45
695	45
696	45
697	45
698	45
699	45
700	45
701	45
702	45
703	45
704	45
705	45
706	45
707	45
708	45
709	45
710	45
711	45
712	45
713	45
714	45
715	45
716	45
717	45
718	45
719	45
720	45
721	45
722	45
723	45
724	45
725	45
726	45
727	45
728	45
729	45
730	45
731	45
732	45
733	45
734	45
735	45
736	45
737	45
738	45
739	45
740	45
741	45
742	45
743	45
744	45
745	45
746	45
747	45
748	45
749	45
750	45
751	45
752	45
753	45
754	45
755	45
756	45
757	45
758	45
759	45
760	45
761	45
762	45
763	45
764	45
765	45
766	45
767	45
768	45
769	45
770	45
771	45
772	45
773	45
774	45
775	45
776	45
777	45
778	45
779	45
780	45
781	45
782	45
783	45
784	45
785	45
786	45
787	45
788	45
789	45
790	45
791	45
792	45
793	45
794	45
795	45
796	45
797	45
798	45
799	45
800	45
801	45
802	45
803	45
804	45
805	45
806	45
807	45
808	45
809	45
810	45
811	45
812	45
813	45
814	45
815	45
816	45
817	45
818	45
819	45
820	45
821	45
822	45
823	45
824	45
825	45
826	45
827	45
828	45
829	45
830	45
831	45
832	45
833	45
834	45
835	45
836	45
837	45
838	45
839	45
840	45
841	45
842	45
843	45
844	45
845	45
846	45
847	45
848	45
849	45
850	45
851	45
852	45
853	45
854	45
855	45
856	45
857	45
858	45
859	45
860	45
861	45
862	45
863	45
864	45
865	45
866	45
867	45
868	45
869	45
870	45
871	45
872	45
873	45
874	45
875	45
876	45
877	45
878	45
879	45
880	45
881	45
882	45
883	45
884	45
885	45
886	45
887	45
888	45
889	45
890	45
891	45
892	71
893	71
894	71
895	71
896	71
897	71
898	71
899	71
900	71
901	71
902	71
903	71
904	71
905	71
906	71
907	71
908	71
909	71
910	71
911	71
912	71
913	71
914	71
915	71
916	71
917	71
918	71
919	71
920	71
921	71
922	71
923	71
924	71
925	71
926	71
927	71
928	71
929	71
930	71
931	71
932	71
933	71
934	71
935	71
936	71
937	71
938	71
939	71
940	71
941	71
942	71
943	71
944	71
945	71
946	71
947	71
948	71
949	71
950	71
951	71
952	71
953	71
954	71
955	71
956	71
957	71
958	71
959	71
960	71
961	71
962	71
963	71
964	71
965	71
966	71
967	71
968	71
969	71
970	71
971	71
972	71
973	71
974	71
975	71
976	71
977	71
978	71
979	71
980	71
981	71
982	71
983	71
984	71
985	71
986	71
987	71
988	71
989	71
990	71
991	71
992	71
993	71
994	71
995	71
996	71
997	71
998	71
999	71
1000	71
1001	71
1002	71
1003	71
1004	71
1005	71
1006	71
1007	71
1008	71
1009	71
1010	71
1011	71
1012	71
1013	71
1014	71
1015	71
1016	71
1017	71
1018	71
1019	71
1020	71
1021	71
1022	71
1023	71
1024	71
1025	71
1026	71
1027	71
1028	71
1029	71
1030	71
1031	71
1032	71
1033	71
1034	71
1035	71
1036	71
1037	71
1038	71
1039	71
1040	71
1041	71
1042	71
1043	71
1044	71
1045	71
1046	71
1047	71
1048	71
1049	71
1050	71
1051	71
1052	71
1053	71
1054	71
1055	71
1056	71
1057	71
1058	71
1059	71
1060	71
1061	71
1062	71
1063	71
1064	71
1065	71
1066	71
1067	71
1068	71
1069	71
1070	71
1071	71
1072	71
1073	71
1074	71
1075	71
1076	71
1077	71
1078	71
1079	71
1080	71
1081	71
1082	71
1083	71
1084	71
1085	71
1086	71
1087	71
1088	71
1089	71
1090	71
1091	71
1092	71
1093	71
1094	71
1095	71
1096	71
1097	71
1098	71
1099	71
1100	71
1101	71
1102	71
1103	71
1104	71
1105	71
1106	71
1107	71
1108	71
1109	71
1110	71
1111	71
1112	71
1113	71
1114	71
1115	71
1116	71
1117	71
1118	71
1119	71
1120	71
1121	71
1122	71
1123	71
1124	71
1125	71
1126	71
1127	71
1128	71
1129	71
1130	71
1131	71
1132	71
1133	71
1134	71
1135	71
1136	71
1137	71
1138	71
1139	71
1140	71
1141	71
1142	71
1143	71
1144	71
1145	71
1146	71
1147	71
1148	71
1149	71
1150	71
1151	71
1152	71
1153	71
1154	71
1155	71
1156	71
1157	71
1158	71
1159	71
1160	71
1161	71
1162	71
1163	71
1164	71
1165	71
1166	71
1167	71
1168	71
1169	71
1170	71
1171	71
1172	71
1173	71
1174	71
1175	71
1176	71
1177	71
1178	71
1179	71
1180	71
1181	71
1182	71
1183	71
1184	71
1185	71
1186	71
1187	71
1188	71
1189	111
1190	111
1191	111
1192	111
1193	111
1194	111
1195	111
1196	111
1197	111
1198	111
1199	111
1200	111
1201	111
1202	111
1203	111
1204	111
1205	111
1206	111
1207	111
1208	111
1209	111
1210	111
1211	111
1212	111
1213	111
1214	111
1215	111
1216	111
1217	111
1218	111
1219	111
1220	111
1221	111
1222	111
1223	111
1224	111
1225	111
1226	111
1227	111
1228	111
1229	111
1230	111
1231	111
1232	111
1233	111
1234	111
1235	111
1236	111
1237	111
1238	111
1239	111
1240	111
1241	111
1242	111
1243	111
1244	111
1245	111
1246	111
1247	111
1248	111
1249	111
1250	111
1251	111
1252	111
1253	111
1254	111
1255	111
1256	111
1257	111
1258	111
1259	111
1260	111
1261	111
1262	111
1263	111
1264	111
1265	111
1266	111
1267	111
1268	111
1269	111
1270	111
1271	111
1272	111
1273	111
1274	111
1275	111
1276	111
1277	111
1278	111
1279	111
1280	111
1281	111
1282	111
1283	111
1284	111
1285	111
1286	111
1287	111
1288	111
1289	111
1290	111
1291	111
1292	111
1293	111
1294	111
1295	111
1296	111
1297	111
1298	111
1299	111
1300	111
1301	111
1302	111
1303	111
1304	111
1305	111
1306	111
1307	111
1308	111
1309	111
1310	111
1311	111
1312	111
1313	111
1314	111
1315	111
1316	111
1317	111
1318	111
1319	111
1320	111
1321	111
1322	111
1323	111
1324	111
1325	111
1326	111
1327	111
1328	111
1329	111
1330	111
1331	111
1332	111
1333	111
1334	111
1335	111
1336	111
1337	111
1338	111
1339	111
1340	111
1341	111
1342	111
1343	111
1344	111
1345	111
1346	111
1347	111
1348	111
1349	111
1350	111
1351	111
1352	111
1353	111
1354	111
1355	111
1356	111
1357	111
1358	111
1359	111
1360	111
1361	111
1362	111
1363	111
1364	111
1365	111
1366	111
1367	111
1368	111
1369	111
1370	111
1371	111
1372	111
1373	111
1374	111
1375	111
1376	111
1377	111
1378	111
1379	111
1380	111
1381	111
1382	111
1383	111
1384	111
1385	111
1386	111
1387	111
1388	111
1389	111
1390	111
1391	111
1392	111
1393	111
1394	111
1395	111
1396	111
1397	111
1398	111
1399	111
1400	111
1401	111
1402	111
1403	111
1404	111
1405	111
1406	111
1407	111
1408	111
1409	111
1410	111
1411	111
1412	111
1413	111
1414	111
1415	111
1416	111
1417	111
1418	111
1419	111
1420	111
1421	111
1422	111
1423	111
1424	111
1425	111
1426	111
1427	111
1428	111
1429	111
1430	111
1431	111
1432	111
1433	111
1434	111
1435	111
1436	111
1437	111
1438	111
1439	111
1440	111
1441	111
1442	111
1443	111
1444	111
1445	111
1446	111
1447	111
1448	111
1449	111
1450	111
1451	111
1452	111
1453	111
1454	111
1455	111
1456	111
1457	111
1458	111
1459	111
1460	111
1461	111
1462	111
1463	111
1464	111
1465	111
1466	111
1467	111
1468	111
1469	111
1470	111
1471	111
1472	111
1473	111
1474	111
1475	111
1476	111
1477	111
1478	111
1479	111
1480	111
1481	111
1482	111
1483	111
1484	111
1485	111
VEHICLES_UNIT_DISTANCE_COST_SECTION
1	41
2	41
3	41
4	41
5	41
6	41
7	41
8	41
9	41
10	41
11	41
12	41
13	41
14	41
15	41
16	41
17	41
18	41
19	41
20	41
21	41
22	41
23	41
24	41
25	41
26	41
27	41
28	41
29	41
30	41
31	41
32	41
33	41
34	41
35	41
36	41
37	41
38	41
39	41
40	41
41	41
42	41
43	41
44	41
45	41
46	41
47	41
48	41
49	41
50	41
51	41
52	41
53	41
54	41
55	41
56	41
57	41
58	41
59	41
60	41
61	41
62	41
63	41
64	41
65	41
66	41
67	41
68	41
69	41
70	41
71	41
72	41
73	41
74	41
75	41
76	41
77	41
78	41
79	41
80	41
81	41
82	41
83	41
84	41
85	41
86	41
87	41
88	41
89	41
90	41
91	41
92	41
93	41
94	41
95	41
96	41
97	41
98	41
99	41
100	41
101	41
102	41
103	41
104	41
105	41
106	41
107	41
108	41
109	41
110	41
111	41
112	41
113	41
114	41
115	41
116	41
117	41
118	41
119	41
120	41
121	41
122	41
123	41
124	41
125	41
126	41
127	41
128	41
129	41
130	41
131	41
132	41
133	41
134	41
135	41
136	41
137	41
138	41
139	41
140	41
141	41
142	41
143	41
144	41
145	41
146	41
147	41
148	41
149	41
150	41
151	41
152	41
153	41
154	41
155	41
156	41
157	41
158	41
159	41
160	41
161	41
162	41
163	41
164	41
165	41
166	41
167	41
168	41
169	41
170	41
171	41
172	41
173	41
174	41
175	41
176	41
177	41
178	41
179	41
180	41
181	41
182	41
183	41
184	41
185	41
186	41
187	41
188	41
189	41
190	41
191	41
192	41
193	41
194	41
195	41
196	41
197	41
198	41
199	41
200	41
201	41
202	41
203	41
204	41
205	41
206	41
207	41
208	41
209	41
210	41
211	41
212	41
213	41
214	41
215	41
216	41
217	41
218	41
219	41
220	41
221	41
222	41
223	41
224	41
225	41
226	41
227	41
228	41
229	41
230	41
231	41
232	41
233	41
234	41
235	41
236	41
237	41
238	41
239	41
240	41
241	41
242	41
243	41
244	41
245	41
246	41
247	41
248	41
249	41
250	41
251	41
252	41
253	41
254	41
255	41
256	41
257	41
258	41
259	41
260	41
261	41
262	41
263	41
264	41
265	41
266	41
267	41
268	41
269	41
270	41
271	41
272	41
273	41
274	41
275	41
276	41
277	41
278	41
279	41
280	41
281	41
282	41
283	41
284	41
285	41
286	41
287	41
288	41
289	41
290	41
291	41
292	41
293	41
294	41
295	41
296	41
297	41
298	64
299	64
300	64
301	64
302	64
303	64
304	64
305	64
306	64
307	64
308	64
309	64
310	64
311	64
312	64
313	64
314	64
315	64
316	64
317	64
318	64
319	64
320	64
321	64
322	64
323	64
324	64
325	64
326	64
327	64
328	64
329	64
330	64
331	64
332	64
333	64
334	64
335	64
336	64
337	64
338	64
339	64
340	64
341	64
342	64
343	64
344	64
345	64
346	64
347	64
348	64
349	64
350	64
351	64
352	64
353	64
354	64
355	64
356	64
357	64
358	64
359	64
360	64
361	64
362	64
363	64
364	64
365	64
366	64
367	64
368	64
369	64
370	64
371	64
372	64
373	64
374	64
375	64
376	64
377	64
378	64
379	64
380	64
381	64
382	64
383	64
384	64
385	64
386	64
387	64
388	64
389	64
390	64
391	64
392	64
393	64
394	64
395	64
396	64
397	64
398	64
399	64
400	64
401	64
402	64
403	64
404	64
405	64
406	64
407	64
408	64
409	64
410	64
411	64
412	64
413	64
414	64
415	64
416	64
417	64
418	64
419	64
420	64
421	64
422	64
423	64
424	64
425	64
426	64
427	64
428	64
429	64
430	64
431	64
432	64
433	64
434	64
435	64
436	64
437	64
438	64
439	64
440	64
441	64
442	64
443	64
444	64
445	64
446	64
447	64
448	64
449	64
450	64
451	64
452	64
453	64
454	64
455	64
456	64
457	64
458	64
459	64
460	64
461	64
462	64
463	64
464	64
465	64
466	64
467	64
468	64
469	64
470	64
471	64
472	64
473	64
474	64
475	64
476	64
477	64
478	64
479	64
480	64
481	64
482	64
483	64
484	64
485	64
486	64
487	64
488	64
489	64
490	64
491	64
492	64
493	64
494	64
495	64
496	64
497	64
498	64
499	64
500	64
501	64
502	64
503	64
504	64
505	64
506	64
507	64
508	64
509	64
510	64
511	64
512	64
513	64
514	64
515	64
516	64
517	64
518	64
519	64
520	64
521	64
522	64
523	64
524	64
525	64
526	64
527	64
528	64
529	64
530	64
531	64
532	64
533	64
534	64
535	64
536	64
537	64
538	64
539	64
540	64
541	64
542	64
543	64
544	64
545	64
546	64
547	64
548	64
549	64
550	64
551	64
552	64
553	64
554	64
555	64
556	64
557	64
558	64
559	64
560	64
561	64
562	64
563	64
564	64
565	64
566	64
567	64
568	64
569	64
570	64
571	64
572	64
573	64
574	64
575	64
576	64
577	64
578	64
579	64
580	64
581	64
582	64
583	64
584	64
585	64
586	64
587	64
588	64
589	64
590	64
591	64
592	64
593	64
594	64
595	100
596	100
597	100
598	100
599	100
600	100
601	100
602	100
603	100
604	100
605	100
606	100
607	100
608	100
609	100
610	100
611	100
612	100
613	100
614	100
615	100
616	100
617	100
618	100
619	100
620	100
621	100
622	100
623	100
624	100
625	100
626	100
627	100
628	100
629	100
630	100
631	100
632	100
633	100
634	100
635	100
636	100
637	100
638	100
639	100
640	100
641	100
642	100
643	100
644	100
645	100
646	100
647	100
648	100
649	100
650	100
651	100
652	100
653	100
654	100
655	100
656	100
657	100
658	100
659	100
660	100
661	100
662	100
663	100
664	100
665	100
666	100
667	100
668	100
669	100
670	100
671	100
672	100
673	100
674	100
675	100
676	100
677	100
678	100
679	100
680	100
681	100
682	100
683	100
684	100
685	100
686	100
687	100
688	100
689	100
690	100
691	100
692	100
693	100
694	100
695	100
696	100
697	100
698	100
699	100
700	100
701	100
702	100
703	100
704	100
705	100
706	100
707	100
708	100
709	100
710	100
711	100
712	100
713	100
714	100
715	100
716	100
717	100
718	100
719	100
720	100
721	100
722	100
723	100
724	100
725	100
726	100
727	100
728	100
729	100
730	100
731	100
732	100
733	100
734	100
735	100
736	100
737	100
738	100
739	100
740	100
741	100
742	100
743	100
744	100
745	100
746	100
747	100
748	100
749	100
750	100
751	100
752	100
753	100
754	100
755	100
756	100
757	100
758	100
759	100
760	100
761	100
762	100
763	100
764	100
765	100
766	100
767	100
768	100
769	100
770	100
771	100
772	100
773	100
774	100
775	100
776	100
777	100
778	100
779	100
780	100
781	100
782	100
783	100
784	100
785	100
786	100
787	100
788	100
789	100
790	100
791	100
792	100
793	100
794	100
795	100
796	100
797	100
798	100
799	100
800	100
801	100
802	100
803	100
804	100
805	100
806	100
807	100
808	100
809	100
810	100
811	100
812	100
813	100
814	100
815	100
816	100
817	100
818	100
819	100
820	100
821	100
822	100
823	100
824	100
825	100
826	100
827	100
828	100
829	100
830	100
831	100
832	100
833	100
834	100
835	100
836	100
837	100
838	100
839	100
840	100
841	100
842	100
843	100
844	100
845	100
846	100
847	100
848	100
849	100
850	100
851	100
852	100
853	100
854	100
855	100
856	100
857	100
858	100
859	100
860	100
861	100
862	100
863	100
864	100
865	100
866	100
867	100
868	100
869	100
870	100
871	100
872	100
873	100
874	100
875	100
876	100
877	100
878	100
879	100
880	100
881	100
882	100
883	100
884	100
885	100
886	100
887	100
888	100
889	100
890	100
891	100
892	157
893	157
894	157
895	157
896	157
897	157
898	157
899	157
900	157
901	157
902	157
903	157
904	157
905	157
906	157
907	157
908	157
909	157
910	157
911	157
912	157
913	157
914	157
915	157
916	157
917	157
918	157
919	157
920	157
921	157
922	157
923	157
924	157
925	157
926	157
927	157
928	157
929	157
930	157
931	157
932	157
933	157
934	157
935	157
936	157
937	157
938	157
939	157
940	157
941	157
942	157
943	157
944	157
945	157
946	157
947	157
948	157
949	157
950	157
951	157
952	157
953	157
954	157
955	157
956	157
957	157
958	157
959	157
960	157
961	157
962	157
963	157
964	157
965	157
966	157
967	157
968	157
969	157
970	157
971	157
972	157
973	157
974	157
975	157
976	157
977	157
978	157
979	157
980	157
981	157
982	157
983	157
984	157
985	157
986	157
987	157
988	157
989	157
990	157
991	157
992	157
993	157
994	157
995	157
996	157
997	157
998	157
999	157
1000	157
1001	157
1002	157
1003	157
1004	157
1005	157
1006	157
1007	157
1008	157
1009	157
1010	157
1011	157
1012	157
1013	157
1014	157
1015	157
1016	157
1017	157
1018	157
1019	157
1020	157
1021	157
1022	157
1023	157
1024	157
1025	157
1026	157
1027	157
1028	157
1029	157
1030	157
1031	157
1032	157
1033	157
1034	157
1035	157
1036	157
1037	157
1038	157
1039	157
1040	157
1041	157
1042	157
1043	157
1044	157
1045	157
1046	157
1047	157
1048	157
1049	157
1050	157
1051	157
1052	157
1053	157
1054	157
1055	157
1056	157
1057	157
1058	157
1059	157
1060	157
1061	157
1062	157
1063	157
1064	157
1065	157
1066	157
1067	157
1068	157
1069	157
1070	157
1071	157
1072	157
1073	157
1074	157
1075	157
1076	157
1077	157
1078	157
1079	157
1080	157
1081	157
1082	157
1083	157
1084	157
1085	157
1086	157
1087	157
1088	157
1089	157
1090	157
1091	157
1092	157
1093	157
1094	157
1095	157
1096	157
1097	157
1098	157
1099	157
1100	157
1101	157
1102	157
1103	157
1104	157
1105	157
1106	157
1107	157
1108	157
1109	157
1110	157
1111	157
1112	157
1113	157
1114	157
1115	157
1116	157
1117	157
1118	157
1119	157
1120	157
1121	157
1122	157
1123	157
1124	157
1125	157
1126	157
1127	157
1128	157
1129	157
1130	157
1131	157
1132	157
1133	157
1134	157
1135	157
1136	157
1137	157
1138	157
1139	157
1140	157
1141	157
1142	157
1143	157
1144	157
1145	157
1146	157
1147	157
1148	157
1149	157
1150	157
1151	157
1152	157
1153	157
1154	157
1155	157
1156	157
1157	157
1158	157
1159	157
1160	157
1161	157
1162	157
1163	157
1164	157
1165	157
1166	157
1167	157
1168	157
1169	157
1170	157
1171	157
1172	157
1173	157
1174	157
1175	157
1176	157
1177	157
1178	157
1179	157
1180	157
1181	157
1182	157
1183	157
1184	157
1185	157
1186	157
1187	157
1188	157
1189	245
1190	245
1191	245
1192	245
1193	245
1194	245
1195	245
1196	245
1197	245
1198	245
1199	245
1200	245
1201	245
1202	245
1203	245
1204	245
1205	245
1206	245
1207	245
1208	245
1209	245
1210	245
1211	245
1212	245
1213	245
1214	245
1215	245
1216	245
1217	245
1218	245
1219	245
1220	245
1221	245
1222	245
1223	245
1224	245
1225	245
1226	245
1227	245
1228	245
1229	245
1230	245
1231	245
1232	245
1233	245
1234	245
1235	245
1236	245
1237	245
1238	245
1239	245
1240	245
1241	245
1242	245
1243	245
1244	245
1245	245
1246	245
1247	245
1248	245
1249	245
1250	245
1251	245
1252	245
1253	245
1254	245
1255	245
1256	245
1257	245
1258	245
1259	245
1260	245
1261	245
1262	245
1263	245
1264	245
1265	245
1266	245
1267	245
1268	245
1269	245
1270	245
1271	245
1272	245
1273	245
1274	245
1275	245
1276	245
1277	245
1278	245
1279	245
1280	245
1281	245
1282	245
1283	245
1284	245
1285	245
1286	245
1287	245
1288	245
1289	245
1290	245
1291	245
1292	245
1293	245
1294	245
1295	245
1296	245
1297	245
1298	245
1299	245
1300	245
1301	245
1302	245
1303	245
1304	245
1305	245
1306	245
1307	245
1308	245
1309	245
1310	245
1311	245
1312	245
1313	245
1314	245
1315	245
1316	245
1317	245
1318	245
1319	245
1320	245
1321	245
1322	245
1323	245
1324	245
1325	245
1326	245
1327	245
1328	245
1329	245
1330	245
1331	245
1332	245
1333	245
1334	245
1335	245
1336	245
1337	245
1338	245
1339	245
1340	245
1341	245
1342	245
1343	245
1344	245
1345	245
1346	245
1347	245
1348	245
1349	245
1350	245
1351	245
1352	245
1353	245
1354	245
1355	245
1356	245
1357	245
1358	245
1359	245
1360	245
1361	245
1362	245
1363	245
1364	245
1365	245
1366	245
1367	245
1368	245
1369	245
1370	245
1371	245
1372	245
1373	245
1374	245
1375	245
1376	245
1377	245
1378	245
1379	245
1380	245
1381	245
1382	245
1383	245
1384	245
1385	245
1386	245
1387	245
1388	245
1389	245
1390	245
1391	245
1392	245
1393	245
1394	245
1395	245
1396	245
1397	245
1398	245
1399	245
1400	245
1401	245
1402	245
1403	245
1404	245
1405	245
1406	245
1407	245
1408	245
1409	245
1410	245
1411	245
1412	245
1413	245
1414	245
1415	245
1416	245
1417	245
1418	245
1419	245
1420	245
1421	245
1422	245
1423	245
1424	245
1425	245
1426	245
1427	245
1428	245
1429	245
1430	245
1431	245
1432	245
1433	245
1434	245
1435	245
1436	245
1437	245
1438	245
1439	245
1440	245
1441	245
1442	245
1443	245
1444	245
1445	245
1446	245
1447	245
1448	245
1449	245
1450	245
1451	245
1452	245
1453	245
1454	245
1455	245
1456	245
1457	245
1458	245
1459	245
1460	245
1461	245
1462	245
1463	245
1464	245
1465	245
1466	245
1467	245
1468	245
1469	245
1470	245
1471	245
1472	245
1473	245
1474	245
1475	245
1476	245
1477	245
1478	245
1479	245
1480	245
1481	245
1482	245
1483	245
1484	245
1485	245
DEPOT_SECTION
1
EOF
